9542
8921
6160
6132
4113
7068
5499
3437
9416
9308
4653
3545
6855
6176
6018
1138
2346
940
6200
9531
6827
7238
4200
4869
4057
3543
8303
10169
5684
7667
7759
4601
7612
8630
7105
5735
4066
1287
2568
7260
5735
3377
6104
6420
402
4728
3644
10160
3608
7753
4182
